30 3
5 8 8
0 0 0 0 28 2 3 4 5 6 7 8 9 10 11 12 13 14 15 16 17 18 19 20 21 22 23 24 25 26 27 28 29
3 3 1 3 6 3 19 9 27 8 11
5 2 1 3 3 6 16 10
5 4 1 1 6 7 5 11 24 11 5
3 5 1 2 3 16 24 18
4 3 1 1 1 12
5 2 2 3 2 15 18
3 1 2 1 4 26 13 14 9
4 2 2 1 1 28
2 3 2 1 4 21 13 11 20
1 3 3 1 1 30
3 2 3 3 3 20 21 23
1 4 3 1 1 25
2 2 1 2 2 26 24
2 1 2 2 1 16
2 2 3 1 1 22
5 3 3 3 2 24 19
5 1 3 2 1 28
6 1 1 2 2 28 21
3 4 1 3 1 23
3 4 3 3 1 27
3 3 3 3 1 30
4 4 1 3 1 26
5 5 3 2 1 30
2 4 1 3 1 30
5 5 3 1 1 30
4 2 2 2 1 30
4 3 3 2 1 30
3 5 1 2 1 30
0 0 0 0 0
